(set-logic ALL)
(declare-fun var0 () String)
(assert (str.in_re var0 (re.++ (re.+ (re.* (re.union (re.union (re.union (re.union (re.union (re.+ (re.union (re.union (str.to_re "0") (str.to_re "11")) (re.union (str.to_re "22") (str.to_re "33")))) (re.+ (re.+ (re.union (str.to_re "44") (str.to_re "555"))))) (re.union (re.+ (re.* (re.* (str.to_re "66")))) (re.+ (re.+ (re.* (str.to_re "7")))))) (re.union (re.+ (re.+ (re.* (re.* (str.to_re "88"))))) (re.+ (re.+ (re.union (re.+ (str.to_re "9")) (re.+ (str.to_re "aa"))))))) (re.union (re.+ (re.+ (re.+ (re.* (re.* (str.to_re "bb")))))) (re.+ (re.* (re.* (re.union (re.union (str.to_re "c") (str.to_re "d")) (re.union (str.to_re "ee") (str.to_re "f")))))))) (re.union (re.* (re.union (re.union (re.union (re.+ (re.* (str.to_re "ggg"))) (re.+ (re.union (str.to_re "hhh") (str.to_re "ii")))) (re.union (re.+ (re.union (str.to_re "j") (str.to_re "kkk"))) (re.+ (re.union (str.to_re "l") (str.to_re "m"))))) (re.union (re.union (re.union (re.+ (str.to_re "n")) (re.+ (str.to_re "oo"))) (re.union (re.* (str.to_re "ppp")) (re.* (str.to_re "qqq")))) (re.union (re.+ (re.+ (str.to_re "rr"))) (re.+ (re.* (str.to_re "ss"))))))) (re.* (re.+ (re.+ (re.union (re.+ (re.+ (str.to_re "ttt"))) (re.+ (re.* (str.to_re "uu"))))))))))) (re.* (re.* (re.* (re.+ (re.union (re.union (re.+ (re.+ (re.* (re.* (str.to_re "vvv"))))) (re.+ (re.+ (re.union (re.union (str.to_re "www") (str.to_re "xxx")) (re.union (str.to_re "y") (str.to_re "zz")))))) (re.union (re.+ (re.* (re.* (re.+ (str.to_re "A"))))) (re.+ (re.union (re.+ (re.union (str.to_re "B") (str.to_re "CC"))) (re.+ (re.+ (str.to_re "DDD"))))))))))))))
(assert (<= 15 (str.len var0)))
(check-sat)